;; Mutation-Based Equivalence Benchmark
;; Source:     AutomatArk / instance04125.smt2
;; Mutations:  range_expand_hi, bound_lower_dec, range_expand_hi
;; Status:     sat
;;
;; Original regex vs mutated regex
;; Equivalence check: unsat ⟺ L(R1) = L(R2)

(set-info :smt-lib-version 2.6)
(set-info :category "mutation")
(set-info :status sat)
(set-logic QF_S)


;; R1: original
;; R2: mutated (range_expand_hi, bound_lower_dec, range_expand_hi)
(assert
  (not
    (=
      (re.++ (re.union (re.++ ((_ re.loop 6 6) (re.range "0" "9")) ((_ re.loop 1 1) (re.union (str.to_re "-") (str.to_re " ") (str.to_re "\u{9}") (str.to_re "\u{a}") (str.to_re "\u{c}") (str.to_re "\u{d}"))) ((_ re.loop 12 12) (re.range "0" "9"))) ((_ re.loop 18 18) (re.range "0" "9"))) (str.to_re "\u{a}"))
      (re.++ (re.union (re.++ ((_ re.loop 6 6) (re.range "0" "9")) ((_ re.loop 1 1) (re.union (str.to_re "-") (str.to_re " ") (str.to_re "\u{9}") (str.to_re "\u{a}") (str.to_re "\u{c}") (str.to_re "\u{d}"))) ((_ re.loop 12 12) (re.range "0" ":"))) ((_ re.loop 17 18) (re.range "0" ":"))) (str.to_re "\u{a}")))))

(check-sat)
(exit)
